% demand
num_movements = 60;
loading_factor = [1250, 1650, 1300, 1800, 900, 1150, 1200, 1700, 1350, 1800, 800, 1200, 900, 1200, 1750, 1750, 2000, 1750, 800, 1850, 1750, 1600, 1450, 1950, 1800, 1850, 1350, 1950, 1850, 1100, 1100, 850, 1700, 1050, 1150, 900, 850, 1250, 1150, 900, 1350, 1000, 1150, 1850, 1400, 2000, 1150, 1800, 1600, 1150, 950, 950, 1450, 800, 800, 900, 1850, 1150, 1600, 1150];
pickup_time = [0, 0, 0, 0, 0, 0, 0, 0, 1, 1, 1, 2, 2, 2, 2, 2, 3, 3, 4, 4, 4, 4, 4, 4, 5, 5, 5, 5, 5, 5, 5, 6, 6, 6, 6, 6, 6, 6, 6, 7, 7, 7, 7, 7, 7, 7, 7, 8, 8, 9, 9, 10, 10, 10, 10, 10, 10, 10, 10, 10];
delivery_time = [1, 1, 1, 2, 2, 1, 3, 1, 2, 2, 2, 4, 5, 4, 4, 4, 4, 4, 5, 5, 5, 5, 5, 5, 7, 6, 6, 6, 6, 6, 6, 7, 7, 7, 7, 7, 7, 7, 7, 8, 9, 8, 10, 9, 8, 8, 10, 10, 9, 10, 10, 11, 11, 11, 11, 11, 11, 11, 11, 11];

% transporter definition
total_capacity = 11000;
num_decks = 4;
capacity = [3000, 3000, 1000, 4000];

% ways out of decks
num_ways_out = 2;
paths_out = array3d(decks, ways_out, decks, [
% ways out of deck d1
2, 4, 0, 0, 3, 4, 0, 0, 

% ways out of deck d2
4, 0, 0, 0, 0, 0, 0, 0,	

% ways out of deck d3
4, 0, 0, 0, 0, 0, 0, 0,	

% ways out of deck d4
0, 0, 0, 0,	0, 0, 0, 0,	

]);

